flow=[(5,0,0)(5,1,0)(5,2,0)(5,6,0)(5,8,0)(5,10,0)(5,11,0)(5,12,0)(5,13,0)(6,1,1)(6,5,1)(6,10,1)(6,11,9)(9,6,1)(10,4,2)(10,6,1)(10,9,1)(11,5,4)(11,6,2)(11,8,3)(11,10,3)(11,12,2)(12,1,2)(12,5,8)(12,6,6)(12,11,3)];
